p cnf 611 1747
a 9 10 11 12 13 14 15 16 17 18 19 20 21 22 23 24 25 26 27 28 29 30 31 32 33 34 35 36 37 38 39 40 41 42 43 44 45 46 47 48 49 50 51 52 53 54 55 56 57 58 59 60 61 62 63 64 65 66 67 68 69 70 71 72 73 74 0
e 1 2 3 4 5 6 7 8 75 76 77 78 79 80 81 82 83 84 85 86 87 88 89 90 91 92 93 94 95 96 97 98 99 100 101 102 103 104 105 106 107 108 109 110 111 112 113 114 115 116 117 118 119 120 121 122 123 124 125 126 127 128 129 130 131 132 133 134 135 136 137 138 139 140 141 142 143 144 145 146 147 148 149 150 151 152 153 154 155 156 157 158 159 160 161 162 163 164 165 166 167 168 169 170 171 172 173 174 175 176 177 178 179 180 181 182 183 184 185 186 187 188 189 190 191 192 193 194 195 196 197 198 199 200 201 202 203 204 205 206 207 208 209 210 211 212 213 214 215 216 217 218 219 220 221 222 223 224 225 226 227 228 229 230 231 232 233 234 235 236 237 238 239 240 241 242 243 244 245 246 247 248 249 250 251 252 253 254 255 256 257 258 259 260 261 262 263 264 265 266 267 268 269 270 271 272 273 274 275 276 277 278 279 280 281 282 283 284 285 286 287 288 289 290 291 292 293 294 295 296 297 298 299 300 301 302 303 304 305 306 307 308 309 310 311 312 313 314 315 316 317 318 319 320 321 322 323 324 325 326 327 328 329 330 331 332 333 334 335 336 337 338 339 340 341 342 343 344 345 346 347 348 349 350 351 352 353 354 355 356 357 358 359 360 361 362 363 364 365 366 367 368 369 370 371 372 373 374 375 376 377 378 379 380 381 382 383 384 385 386 387 388 389 390 391 392 393 394 395 396 397 398 399 400 401 402 403 404 405 406 407 408 409 410 411 412 413 414 415 416 417 418 419 420 421 422 423 424 425 426 427 428 429 430 431 432 433 434 435 436 437 438 439 440 441 442 443 444 445 446 447 448 449 450 451 452 453 454 455 456 457 458 459 460 461 462 463 464 465 466 467 468 469 470 471 472 473 474 475 476 477 478 479 480 481 482 483 484 485 486 487 488 489 490 491 492 493 494 495 496 497 498 499 500 501 502 503 504 505 506 507 508 509 510 511 512 513 514 515 516 517 518 519 520 521 522 523 524 525 526 527 528 529 530 531 532 533 534 535 536 537 538 539 540 541 542 543 544 545 546 547 548 549 550 551 552 553 554 555 556 557 558 559 560 561 562 563 564 565 566 567 568 569 570 571 572 573 574 575 576 577 578 579 580 581 582 583 584 585 586 587 588 589 590 591 592 593 594 595 596 597 598 599 600 601 602 603 604 605 606 607 608 609 610 611 0
-611 0
611 -342 0
611 -610 0
-609 -608 -345 -344 -343 610 0
609 6 0
609 5 0
608 -565 0
608 -588 0
608 -601 0
608 -607 0
-606 -595 -582 -522 607 0
606 -605 0
606 -402 0
606 -403 0
606 -404 0
606 -405 0
-604 -603 -602 605 0
604 -365 0
604 -494 0
604 -368 0
604 -495 0
604 -496 0
604 -497 0
604 -370 0
604 -371 0
604 -74 0
604 -71 0
604 -65 0
604 -61 0
604 -47 0
604 -46 0
604 -41 0
603 -356 0
603 -489 0
603 -359 0
603 -490 0
603 -491 0
603 -361 0
603 -362 0
603 -492 0
603 -73 0
603 -70 0
603 -64 0
603 -58 0
603 -34 0
603 -33 0
603 -28 0
602 -347 0
602 -350 0
602 -484 0
602 -485 0
602 -352 0
602 -353 0
602 -486 0
602 -72 0
602 -69 0
602 -63 0
602 -55 0
602 -487 0
602 -21 0
602 -20 0
602 -15 0
-600 -595 -574 -541 601 0
600 -599 0
600 -402 0
600 -403 0
600 -404 0
600 -405 0
-598 -597 -596 599 0
598 -456 0
598 -457 0
598 -395 0
598 -396 0
598 -458 0
598 -397 0
598 -398 0
598 -459 0
598 -65 0
598 -61 0
598 -47 0
598 -46 0
598 -45 0
598 -44 0
598 -41 0
597 -451 0
597 -385 0
597 -386 0
597 -452 0
597 -453 0
597 -387 0
597 -454 0
597 -388 0
597 -64 0
597 -58 0
597 -34 0
597 -33 0
597 -32 0
597 -31 0
597 -28 0
596 -446 0
596 -375 0
596 -447 0
596 -376 0
596 -377 0
596 -448 0
596 -380 0
596 -449 0
596 -63 0
596 -55 0
596 -21 0
596 -20 0
596 -19 0
596 -18 0
596 -15 0
595 -591 0
595 -594 0
-525 -593 -592 -524 -523 594 0
593 -531 0
593 -512 0
593 -402 0
593 -403 0
593 -404 0
593 -405 0
592 -567 0
592 -503 0
592 -402 0
592 -403 0
592 -404 0
592 -405 0
-444 -590 -589 -439 -406 591 0
590 -474 0
590 -422 0
590 -402 0
590 -403 0
590 -404 0
590 -405 0
589 -576 0
589 -401 0
589 -402 0
589 -403 0
589 -404 0
589 -405 0
-587 -559 -582 -574 588 0
587 -586 0
587 -402 0
587 -403 0
587 -404 0
587 -405 0
-585 -584 -583 586 0
585 -417 0
585 -418 0
585 -419 0
585 -433 0
585 -434 0
585 -435 0
585 -436 0
585 -420 0
585 -65 0
585 -61 0
585 -47 0
585 -46 0
585 -45 0
585 -44 0
585 -41 0
584 -412 0
584 -413 0
584 -428 0
584 -429 0
584 -414 0
584 -415 0
584 -430 0
584 -431 0
584 -64 0
584 -58 0
584 -34 0
584 -33 0
584 -32 0
584 -31 0
584 -28 0
583 -407 0
583 -423 0
583 -424 0
583 -425 0
583 -408 0
583 -409 0
583 -426 0
583 -410 0
583 -63 0
583 -55 0
583 -21 0
583 -20 0
583 -19 0
583 -18 0
583 -15 0
582 -578 0
582 -581 0
-551 -550 -549 -580 -579 581 0
580 -547 0
580 -499 0
580 -402 0
580 -403 0
580 -404 0
580 -405 0
579 -571 0
579 -503 0
579 -402 0
579 -403 0
579 -404 0
579 -405 0
-473 -472 -467 -577 -575 578 0
577 -576 0
577 -471 0
577 -402 0
577 -403 0
577 -404 0
577 -405 0
-482 -481 -480 576 0
575 -445 0
575 -466 0
575 -402 0
575 -403 0
575 -404 0
575 -405 0
574 -569 0
574 -573 0
-546 -545 -544 -572 -570 573 0
572 -571 0
572 -401 0
572 -402 0
572 -403 0
572 -404 0
572 -405 0
-554 -543 -542 571 0
570 -552 0
570 -443 0
570 -402 0
570 -403 0
570 -404 0
570 -405 0
-530 -529 -528 -568 -566 569 0
568 -567 0
568 -471 0
568 -402 0
568 -403 0
568 -404 0
568 -405 0
-535 -534 -533 567 0
566 -526 0
566 -438 0
566 -402 0
566 -403 0
566 -404 0
566 -405 0
-564 -559 -541 -522 565 0
564 -563 0
564 -402 0
564 -403 0
564 -404 0
564 -405 0
-562 -561 -560 563 0
562 -364 0
562 -392 0
562 -393 0
562 -394 0
562 -366 0
562 -367 0
562 -399 0
562 -369 0
562 -47 0
562 -46 0
562 -45 0
562 -44 0
562 -43 0
562 -42 0
562 -41 0
561 -383 0
561 -355 0
561 -357 0
561 -358 0
561 -384 0
561 -389 0
561 -360 0
561 -390 0
561 -34 0
561 -33 0
561 -32 0
561 -31 0
561 -30 0
561 -29 0
561 -28 0
560 -346 0
560 -374 0
560 -348 0
560 -349 0
560 -378 0
560 -379 0
560 -351 0
560 -381 0
560 -21 0
560 -20 0
560 -19 0
560 -18 0
560 -17 0
560 -16 0
560 -15 0
559 -555 0
559 -558 0
-515 -514 -513 -557 -556 558 0
557 -507 0
557 -466 0
557 -402 0
557 -403 0
557 -404 0
557 -405 0
556 -537 0
556 -438 0
556 -402 0
556 -403 0
556 -404 0
556 -405 0
-554 -553 -548 -543 -542 555 0
554 -478 0
554 -402 0
554 -403 0
554 -404 0
554 -405 0
553 -373 0
553 -552 0
553 -402 0
553 -403 0
553 -404 0
553 -405 0
-551 -550 -549 552 0
551 -512 0
551 -402 0
551 -403 0
551 -404 0
551 -405 0
550 -499 0
550 -422 0
550 -402 0
550 -403 0
550 -404 0
550 -405 0
549 -478 0
549 -503 0
549 -402 0
549 -403 0
549 -404 0
549 -405 0
548 -461 0
548 -547 0
548 -402 0
548 -403 0
548 -404 0
548 -405 0
-546 -545 -544 547 0
546 -422 0
546 -402 0
546 -403 0
546 -404 0
546 -405 0
545 -512 0
545 -443 0
545 -402 0
545 -403 0
545 -404 0
545 -405 0
544 -478 0
544 -401 0
544 -402 0
544 -403 0
544 -404 0
544 -405 0
543 -461 0
543 -422 0
543 -402 0
543 -403 0
543 -404 0
543 -405 0
542 -373 0
542 -512 0
542 -402 0
542 -403 0
542 -404 0
542 -405 0
541 -536 0
541 -540 0
-506 -505 -504 -539 -538 540 0
539 -422 0
539 -516 0
539 -402 0
539 -403 0
539 -404 0
539 -405 0
538 -537 0
538 -443 0
538 -402 0
538 -403 0
538 -404 0
538 -405 0
-520 -519 -518 537 0
-535 -534 -533 -532 -527 536 0
535 -461 0
535 -402 0
535 -403 0
535 -404 0
535 -405 0
534 -478 0
534 -466 0
534 -402 0
534 -403 0
534 -404 0
534 -405 0
533 -373 0
533 -499 0
533 -402 0
533 -403 0
533 -404 0
533 -405 0
532 -531 0
532 -478 0
532 -402 0
532 -403 0
532 -404 0
532 -405 0
-530 -529 -528 531 0
530 -466 0
530 -402 0
530 -403 0
530 -404 0
530 -405 0
529 -461 0
529 -471 0
529 -402 0
529 -403 0
529 -404 0
529 -405 0
528 -499 0
528 -438 0
528 -402 0
528 -403 0
528 -404 0
528 -405 0
527 -526 0
527 -373 0
527 -402 0
527 -403 0
527 -404 0
527 -405 0
-525 -524 -523 526 0
525 -499 0
525 -402 0
525 -403 0
525 -404 0
525 -405 0
524 -512 0
524 -466 0
524 -402 0
524 -403 0
524 -404 0
524 -405 0
523 -461 0
523 -503 0
523 -402 0
523 -403 0
523 -404 0
523 -405 0
522 -483 0
522 -521 0
-520 -519 -518 -517 -508 521 0
520 -503 0
520 -402 0
520 -403 0
520 -404 0
520 -405 0
519 -512 0
519 -471 0
519 -402 0
519 -403 0
519 -404 0
519 -405 0
518 -499 0
518 -401 0
518 -402 0
518 -403 0
518 -404 0
518 -405 0
517 -512 0
517 -516 0
517 -402 0
517 -403 0
517 -404 0
517 -405 0
-515 -514 -513 516 0
515 -471 0
515 -402 0
515 -403 0
515 -404 0
515 -405 0
514 -401 0
514 -466 0
514 -402 0
514 -403 0
514 -404 0
514 -405 0
513 -503 0
513 -438 0
513 -402 0
513 -403 0
513 -404 0
513 -405 0
-511 -510 -509 512 0
511 -417 0
511 -418 0
511 -419 0
511 -494 0
511 -495 0
511 -496 0
511 -497 0
511 -420 0
511 -74 0
511 -65 0
511 -61 0
511 -60 0
511 -47 0
511 -46 0
511 -45 0
510 -412 0
510 -413 0
510 -414 0
510 -489 0
510 -415 0
510 -490 0
510 -491 0
510 -492 0
510 -73 0
510 -64 0
510 -58 0
510 -57 0
510 -34 0
510 -33 0
510 -32 0
509 -407 0
509 -484 0
509 -485 0
509 -408 0
509 -409 0
509 -410 0
509 -486 0
509 -72 0
509 -63 0
509 -55 0
509 -54 0
509 -487 0
509 -21 0
509 -20 0
509 -19 0
508 -499 0
508 -507 0
508 -402 0
508 -403 0
508 -404 0
508 -405 0
-506 -505 -504 507 0
506 -401 0
506 -402 0
506 -403 0
506 -404 0
506 -405 0
505 -422 0
505 -471 0
505 -402 0
505 -403 0
505 -404 0
505 -405 0
504 -443 0
504 -503 0
504 -402 0
504 -403 0
504 -404 0
504 -405 0
-502 -501 -500 503 0
502 -392 0
502 -393 0
502 -394 0
502 -494 0
502 -495 0
502 -496 0
502 -497 0
502 -399 0
502 -74 0
502 -65 0
502 -60 0
502 -47 0
502 -46 0
502 -45 0
502 -43 0
501 -383 0
501 -384 0
501 -489 0
501 -490 0
501 -389 0
501 -390 0
501 -491 0
501 -492 0
501 -73 0
501 -64 0
501 -57 0
501 -34 0
501 -33 0
501 -32 0
501 -30 0
500 -374 0
500 -484 0
500 -485 0
500 -378 0
500 -379 0
500 -381 0
500 -486 0
500 -72 0
500 -63 0
500 -54 0
500 -487 0
500 -21 0
500 -20 0
500 -19 0
500 -17 0
-498 -493 -488 499 0
498 -456 0
498 -457 0
498 -494 0
498 -495 0
498 -496 0
498 -497 0
498 -458 0
498 -459 0
498 -74 0
498 -68 0
498 -65 0
498 -61 0
498 -60 0
498 -46 0
498 -45 0
-8 -52 497 0
-7 -14 496 0
-11 7 495 0
8 -48 494 0
493 -451 0
493 -489 0
493 -490 0
493 -452 0
493 -453 0
493 -454 0
493 -491 0
493 -492 0
493 -73 0
493 -67 0
493 -64 0
493 -58 0
493 -57 0
493 -33 0
493 -32 0
-10 7 492 0
-7 -12 491 0
-8 -39 490 0
-35 8 489 0
488 -446 0
488 -484 0
488 -447 0
488 -485 0
488 -448 0
488 -449 0
488 -486 0
488 -72 0
488 -66 0
488 -63 0
488 -55 0
488 -54 0
488 -487 0
488 -20 0
488 -19 0
-7 -13 487 0
-9 7 486 0
-22 8 485 0
-8 -26 484 0
-482 -481 -480 -479 -462 483 0
482 -373 0
482 -402 0
482 -403 0
482 -404 0
482 -405 0
481 -478 0
481 -438 0
481 -402 0
481 -403 0
481 -404 0
481 -405 0
480 -461 0
480 -443 0
480 -402 0
480 -403 0
480 -404 0
480 -405 0
479 -474 0
479 -478 0
479 -402 0
479 -403 0
479 -404 0
479 -405 0
-477 -476 -475 478 0
477 -364 0
477 -417 0
477 -418 0
477 -419 0
477 -366 0
477 -367 0
477 -420 0
477 -369 0
477 -62 0
477 -61 0
477 -60 0
477 -47 0
477 -45 0
477 -44 0
477 -42 0
476 -355 0
476 -412 0
476 -413 0
476 -414 0
476 -357 0
476 -358 0
476 -415 0
476 -360 0
476 -59 0
476 -58 0
476 -57 0
476 -34 0
476 -32 0
476 -31 0
476 -29 0
475 -346 0
475 -407 0
475 -348 0
475 -349 0
475 -351 0
475 -408 0
475 -409 0
475 -410 0
475 -56 0
475 -55 0
475 -54 0
475 -21 0
475 -19 0
475 -18 0
475 -16 0
-473 -472 -467 474 0
473 -438 0
473 -402 0
473 -403 0
473 -404 0
473 -405 0
472 -373 0
472 -471 0
472 -402 0
472 -403 0
472 -404 0
472 -405 0
-470 -469 -468 471 0
470 -392 0
470 -393 0
470 -394 0
470 -433 0
470 -434 0
470 -435 0
470 -436 0
470 -399 0
470 -68 0
470 -65 0
470 -60 0
470 -46 0
470 -45 0
470 -44 0
470 -43 0
469 -383 0
469 -428 0
469 -429 0
469 -384 0
469 -430 0
469 -431 0
469 -389 0
469 -390 0
469 -67 0
469 -64 0
469 -57 0
469 -33 0
469 -32 0
469 -31 0
469 -30 0
468 -374 0
468 -423 0
468 -424 0
468 -425 0
468 -378 0
468 -379 0
468 -426 0
468 -381 0
468 -66 0
468 -63 0
468 -54 0
468 -20 0
468 -19 0
468 -18 0
468 -17 0
467 -443 0
467 -466 0
467 -402 0
467 -403 0
467 -404 0
467 -405 0
-465 -464 -463 466 0
465 -456 0
465 -433 0
465 -434 0
465 -435 0
465 -457 0
465 -436 0
465 -458 0
465 -459 0
465 -65 0
465 -62 0
465 -61 0
465 -60 0
465 -47 0
465 -45 0
465 -44 0
464 -428 0
464 -429 0
464 -451 0
464 -452 0
464 -453 0
464 -430 0
464 -431 0
464 -454 0
464 -64 0
464 -59 0
464 -58 0
464 -57 0
464 -34 0
464 -32 0
464 -31 0
463 -446 0
463 -423 0
463 -424 0
463 -425 0
463 -447 0
463 -426 0
463 -448 0
463 -449 0
463 -63 0
463 -56 0
463 -55 0
463 -54 0
463 -21 0
463 -19 0
463 -18 0
462 -445 0
462 -461 0
462 -402 0
462 -403 0
462 -404 0
462 -405 0
-460 -455 -450 461 0
460 -364 0
460 -456 0
460 -366 0
460 -457 0
460 -367 0
460 -458 0
460 -369 0
460 -459 0
460 -61 0
460 -60 0
460 -47 0
460 -46 0
460 -45 0
460 -44 0
460 -42 0
-5 -51 459 0
-6 -53 458 0
5 -49 457 0
6 -50 456 0
455 -355 0
455 -357 0
455 -358 0
455 -451 0
455 -452 0
455 -453 0
455 -454 0
455 -360 0
455 -58 0
455 -57 0
455 -34 0
455 -33 0
455 -32 0
455 -31 0
455 -29 0
-5 -38 454 0
-37 6 453 0
-6 -40 452 0
-36 5 451 0
450 -346 0
450 -446 0
450 -348 0
450 -349 0
450 -447 0
450 -351 0
450 -448 0
450 -449 0
450 -55 0
450 -54 0
450 -21 0
450 -20 0
450 -19 0
450 -18 0
450 -16 0
-5 -25 449 0
-6 -27 448 0
-23 5 447 0
-24 6 446 0
-444 -439 -406 445 0
444 -443 0
444 -402 0
444 -403 0
444 -404 0
444 -405 0
-442 -441 -440 443 0
442 -365 0
442 -368 0
442 -395 0
442 -396 0
442 -397 0
442 -398 0
442 -370 0
442 -371 0
442 -71 0
442 -65 0
442 -62 0
442 -61 0
442 -60 0
442 -47 0
442 -44 0
441 -356 0
441 -359 0
441 -385 0
441 -386 0
441 -387 0
441 -388 0
441 -361 0
441 -362 0
441 -70 0
441 -64 0
441 -59 0
441 -58 0
441 -57 0
441 -34 0
441 -31 0
440 -347 0
440 -350 0
440 -375 0
440 -376 0
440 -377 0
440 -380 0
440 -352 0
440 -353 0
440 -69 0
440 -63 0
440 -56 0
440 -55 0
440 -54 0
440 -21 0
440 -18 0
439 -422 0
439 -438 0
439 -402 0
439 -403 0
439 -404 0
439 -405 0
-437 -432 -427 438 0
437 -365 0
437 -433 0
437 -434 0
437 -435 0
437 -368 0
437 -436 0
437 -370 0
437 -371 0
437 -71 0
437 -65 0
437 -61 0
437 -60 0
437 -47 0
437 -46 0
437 -44 0
-4 -52 436 0
-3 -14 435 0
-11 3 434 0
4 -48 433 0
432 -356 0
432 -428 0
432 -429 0
432 -359 0
432 -430 0
432 -431 0
432 -361 0
432 -362 0
432 -70 0
432 -64 0
432 -58 0
432 -57 0
432 -34 0
432 -33 0
432 -31 0
-4 -39 431 0
-3 -12 430 0
-35 4 429 0
-10 3 428 0
427 -347 0
427 -423 0
427 -424 0
427 -350 0
427 -425 0
427 -426 0
427 -352 0
427 -353 0
427 -69 0
427 -63 0
427 -55 0
427 -54 0
427 -21 0
427 -20 0
427 -18 0
-4 -26 426 0
-3 -13 425 0
-9 3 424 0
-22 4 423 0
-421 -416 -411 422 0
421 -417 0
421 -418 0
421 -419 0
421 -395 0
421 -396 0
421 -420 0
421 -397 0
421 -398 0
421 -68 0
421 -65 0
421 -61 0
421 -60 0
421 -46 0
421 -45 0
421 -44 0
-4 -53 420 0
-3 -51 419 0
4 -50 418 0
3 -49 417 0
416 -412 0
416 -413 0
416 -414 0
416 -415 0
416 -385 0
416 -386 0
416 -387 0
416 -388 0
416 -67 0
416 -64 0
416 -58 0
416 -57 0
416 -33 0
416 -32 0
416 -31 0
-36 3 415 0
-4 -40 414 0
-3 -38 413 0
-37 4 412 0
411 -407 0
411 -375 0
411 -376 0
411 -377 0
411 -408 0
411 -409 0
411 -410 0
411 -380 0
411 -66 0
411 -63 0
411 -55 0
411 -54 0
411 -20 0
411 -19 0
411 -18 0
-4 -27 410 0
-24 4 409 0
-23 3 408 0
-3 -25 407 0
406 -373 0
406 -401 0
406 -402 0
406 -403 0
406 -404 0
406 -405 0
-10 9 405 0
-11 10 404 0
-13 12 403 0
-12 14 402 0
-400 -391 -382 401 0
400 -392 0
400 -393 0
400 -394 0
400 -395 0
400 -396 0
400 -397 0
400 -398 0
400 -399 0
400 -65 0
400 -60 0
400 -47 0
400 -46 0
400 -45 0
400 -44 0
400 -43 0
1 -49 399 0
6 -48 398 0
-5 -14 397 0
-6 -52 396 0
-11 5 395 0
-2 -53 394 0
-1 -51 393 0
2 -50 392 0
391 -383 0
391 -384 0
391 -385 0
391 -386 0
391 -387 0
391 -388 0
391 -389 0
391 -390 0
391 -64 0
391 -57 0
391 -34 0
391 -33 0
391 -32 0
391 -31 0
391 -30 0
-1 -38 390 0
-36 1 389 0
-35 6 388 0
-6 -39 387 0
-5 -12 386 0
-10 5 385 0
-2 -40 384 0
-37 2 383 0
382 -374 0
382 -375 0
382 -376 0
382 -377 0
382 -378 0
382 -379 0
382 -380 0
382 -381 0
382 -63 0
382 -54 0
382 -21 0
382 -20 0
382 -19 0
382 -18 0
382 -17 0
-23 1 381 0
-22 6 380 0
-24 2 379 0
-2 -27 378 0
-5 -13 377 0
-9 5 376 0
-6 -26 375 0
-1 -25 374 0
-372 -363 -354 373 0
372 -364 0
372 -365 0
372 -366 0
372 -367 0
372 -368 0
372 -369 0
372 -370 0
372 -371 0
372 -71 0
372 -61 0
372 -60 0
372 -47 0
372 -46 0
372 -44 0
372 -42 0
-7 -51 371 0
7 -49 370 0
-11 1 369 0
-8 -53 368 0
-2 -52 367 0
-1 -14 366 0
8 -50 365 0
2 -48 364 0
363 -355 0
363 -356 0
363 -357 0
363 -358 0
363 -359 0
363 -360 0
363 -361 0
363 -362 0
363 -70 0
363 -58 0
363 -57 0
363 -34 0
363 -33 0
363 -31 0
363 -29 0
-7 -38 362 0
-36 7 361 0
-1 -12 360 0
-8 -40 359 0
-35 2 358 0
-10 1 357 0
-37 8 356 0
-2 -39 355 0
354 -346 0
354 -347 0
354 -348 0
354 -349 0
354 -350 0
354 -351 0
354 -352 0
354 -353 0
354 -69 0
354 -55 0
354 -54 0
354 -21 0
354 -20 0
354 -18 0
354 -16 0
-7 -25 353 0
-23 7 352 0
-2 -26 351 0
-8 -27 350 0
-1 -13 349 0
-9 1 348 0
-24 8 347 0
-22 2 346 0
345 3 0
345 4 0
344 8 0
344 7 0
343 1 0
343 2 0
-341 -335 -322 -299 -79 342 0
341 -256 0
341 -316 0
341 -329 0
341 -340 0
-139 -138 -137 -136 -339 340 0
339 -336 0
339 -337 0
339 -338 0
61 -105 -104 46 65 74 47 71 41 -231 -230 -229 -102 -228 -99 338 0
28 33 34 -226 64 -96 -95 58 -225 73 70 -224 -93 -223 -90 337 0
21 -221 20 15 55 69 63 -220 -87 -86 72 -219 -218 -84 -81 336 0
335 -275 0
335 -308 0
335 -329 0
335 -334 0
-139 -138 -137 -136 -333 334 0
333 -330 0
333 -331 0
333 -332 0
61 46 45 65 47 44 41 -193 -132 -131 -192 -130 -129 -191 -190 332 0
28 32 31 33 34 64 58 -122 -188 -121 -187 -186 -120 -119 -185 331 0
21 20 19 18 15 55 63 -183 -114 -182 -111 -110 -181 -109 -180 330 0
-328 -325 329 0
328 -257 0
328 -258 0
328 -326 0
328 -327 0
328 -259 0
-139 -138 -137 -136 -246 -265 327 0
-139 -138 -137 -136 -237 -301 326 0
325 -140 0
325 -173 0
325 -323 0
325 -324 0
325 -178 0
-139 -138 -137 -136 -156 -208 324 0
-139 -138 -137 -136 -135 -310 323 0
322 -308 0
322 -316 0
322 -293 0
322 -321 0
-139 -138 -137 -136 -320 321 0
320 -317 0
320 -318 0
320 -319 0
61 46 45 65 47 44 41 -154 -170 -169 -168 -167 -153 -152 -151 319 0
28 32 31 33 34 64 58 -165 -164 -149 -148 -163 -162 -147 -146 318 0
21 20 19 18 15 55 63 -144 -160 -143 -142 -159 -158 -157 -141 317 0
-315 -312 316 0
315 -313 0
315 -314 0
315 -283 0
315 -284 0
315 -285 0
-139 -138 -137 -136 -233 -281 314 0
-139 -138 -137 -136 -237 -305 313 0
312 -309 0
312 -311 0
312 -201 0
312 -206 0
312 -207 0
-139 -138 -137 -136 -205 -310 311 0
310 -214 0
310 -215 0
310 -216 0
-139 -138 -137 -136 -200 -179 309 0
-307 -303 308 0
307 -304 0
307 -306 0
307 -278 0
307 -279 0
307 -280 0
-139 -138 -137 -136 -135 -305 306 0
305 -276 0
305 -277 0
305 -288 0
-139 -138 -137 -136 -177 -286 304 0
303 -300 0
303 -302 0
303 -262 0
303 -263 0
303 -264 0
-139 -138 -137 -136 -205 -301 302 0
301 -267 0
301 -268 0
301 -269 0
-139 -138 -137 -136 -172 -260 300 0
299 -256 0
299 -275 0
299 -293 0
299 -298 0
-139 -138 -137 -136 -297 298 0
297 -294 0
297 -295 0
297 -296 0
46 45 43 47 44 42 41 -103 -133 -101 -100 -128 -127 -126 -98 296 0
28 32 31 30 29 33 34 -124 -94 -123 -118 -92 -91 -89 -117 295 0
21 20 19 18 17 16 15 -115 -85 -113 -112 -83 -82 -108 -80 294 0
-292 -289 293 0
292 -290 0
292 -291 0
292 -247 0
292 -248 0
292 -249 0
-139 -138 -137 -136 -200 -241 291 0
-139 -138 -137 -136 -172 -271 290 0
289 -276 0
289 -277 0
289 -282 0
289 -287 0
289 -288 0
-139 -138 -137 -136 -212 288 0
-139 -138 -137 -136 -286 -107 287 0
286 -283 0
286 -284 0
286 -285 0
-139 -138 -137 -136 -246 285 0
-139 -138 -137 -136 -156 -233 284 0
-139 -138 -137 -136 -237 -212 283 0
-139 -138 -137 -136 -281 -195 282 0
281 -278 0
281 -279 0
281 -280 0
-139 -138 -137 -136 -156 280 0
-139 -138 -137 -136 -177 -246 279 0
-139 -138 -137 -136 -135 -212 278 0
-139 -138 -137 -136 -156 -195 277 0
-139 -138 -137 -136 -246 -107 276 0
-274 -270 275 0
274 -272 0
274 -273 0
274 -238 0
274 -239 0
274 -240 0
-139 -138 -137 -136 -250 -156 273 0
-139 -138 -137 -136 -177 -271 272 0
271 -252 0
271 -253 0
271 -254 0
270 -261 0
270 -266 0
270 -267 0
270 -268 0
270 -269 0
-139 -138 -137 -136 -195 269 0
-139 -138 -137 -136 -200 -212 268 0
-139 -138 -137 -136 -233 -107 267 0
-139 -138 -137 -136 -212 -265 266 0
265 -262 0
265 -263 0
265 -264 0
-139 -138 -137 -136 -200 264 0
-139 -138 -137 -136 -205 -195 263 0
-139 -138 -137 -136 -172 -233 262 0
-139 -138 -137 -136 -107 -260 261 0
260 -257 0
260 -258 0
260 -259 0
-139 -138 -137 -136 -233 259 0
-139 -138 -137 -136 -200 -246 258 0
-139 -138 -137 -136 -237 -195 257 0
-255 -217 256 0
255 -242 0
255 -251 0
255 -252 0
255 -253 0
255 -254 0
-139 -138 -137 -136 -237 254 0
-139 -138 -137 -136 -205 -246 253 0
-139 -138 -137 -136 -135 -233 252 0
-139 -138 -137 -136 -250 -246 251 0
250 -247 0
250 -248 0
250 -249 0
-139 -138 -137 -136 -205 249 0
-139 -138 -137 -136 -200 -135 248 0
-139 -138 -137 -136 -172 -237 247 0
246 -243 0
246 -244 0
246 -245 0
61 46 45 65 60 74 47 -154 -231 -230 -229 -228 -153 -152 -151 245 0
32 33 34 -226 64 58 57 -225 73 -224 -149 -223 -148 -147 -146 244 0
21 -221 20 19 54 55 63 -220 72 -144 -143 -142 -219 -218 -141 243 0
-139 -138 -137 -136 -241 -233 242 0
241 -238 0
241 -239 0
241 -240 0
-139 -138 -137 -136 -135 240 0
-139 -138 -137 -136 -205 -156 239 0
-139 -138 -137 -136 -237 -177 238 0
237 -234 0
237 -235 0
237 -236 0
46 45 43 65 60 74 47 -133 -231 -230 -229 -228 -128 -127 -126 236 0
32 30 33 34 -226 64 57 -225 73 -124 -123 -224 -223 -118 -117 235 0
21 -221 20 19 17 54 63 -220 72 -115 -113 -112 -219 -218 -108 234 0
233 -222 0
233 -227 0
233 -232 0
61 68 46 45 65 60 74 -193 -192 -231 -230 -229 -228 -191 -190 232 0
231 52 0
231 8 0
230 14 0
230 7 0
229 11 0
229 -7 0
228 48 0
228 -8 0
32 33 67 -226 64 58 57 -225 73 -188 -187 -186 -224 -223 -185 227 0
226 10 0
226 -7 0
225 12 0
225 7 0
224 39 0
224 8 0
223 35 0
223 -8 0
-221 20 19 54 55 66 63 -220 72 -183 -182 -219 -181 -218 -180 222 0
221 7 0
221 13 0
220 9 0
220 -7 0
219 22 0
219 -8 0
218 26 0
218 8 0
217 -196 0
217 -213 0
217 -214 0
217 -215 0
217 -216 0
-139 -138 -137 -136 -107 216 0
-139 -138 -137 -136 -172 -212 215 0
-139 -138 -137 -136 -177 -195 214 0
-139 -138 -137 -136 -212 -208 213 0
212 -209 0
212 -210 0
212 -211 0
61 45 62 60 47 44 42 -103 -154 -101 -100 -153 -152 -151 -98 211 0
32 31 29 34 59 58 57 -94 -149 -148 -92 -91 -147 -146 -89 210 0
21 19 18 16 54 56 55 -144 -143 -142 -85 -83 -82 -141 -80 209 0
208 -201 0
208 -206 0
208 -207 0
-139 -138 -137 -136 -172 207 0
-139 -138 -137 -136 -205 -107 206 0
205 -202 0
205 -203 0
205 -204 0
68 46 45 43 65 60 44 -133 -170 -169 -168 -167 -128 -127 -126 204 0
32 31 30 33 67 64 57 -124 -123 -165 -164 -163 -162 -118 -117 203 0
20 19 18 17 54 66 63 -115 -160 -113 -112 -159 -158 -157 -108 202 0
-139 -138 -137 -136 -200 -177 201 0
200 -197 0
200 -198 0
200 -199 0
61 45 65 62 60 47 44 -193 -192 -170 -191 -169 -168 -167 -190 199 0
32 31 34 64 59 58 57 -188 -165 -164 -187 -186 -185 -163 -162 198 0
21 19 18 54 56 55 63 -183 -182 -160 -181 -159 -158 -157 -180 197 0
-139 -138 -137 -136 -195 -179 196 0
195 -184 0
195 -189 0
195 -194 0
61 46 45 60 47 44 42 -193 -103 -192 -101 -191 -100 -190 -98 194 0
193 51 0
193 5 0
192 53 0
192 6 0
191 49 0
191 -5 0
190 50 0
190 -6 0
32 31 29 33 34 58 57 -94 -188 -187 -186 -185 -92 -91 -89 189 0
188 38 0
188 5 0
187 37 0
187 -6 0
186 40 0
186 6 0
185 36 0
185 -5 0
21 20 19 18 16 54 55 -183 -182 -85 -181 -83 -82 -180 -80 184 0
183 25 0
183 5 0
182 27 0
182 6 0
181 23 0
181 -5 0
180 24 0
180 -6 0
179 -140 0
179 -173 0
179 -178 0
-139 -138 -137 -136 -177 178 0
177 -174 0
177 -175 0
177 -176 0
61 -105 -104 65 62 60 47 71 44 -132 -131 -130 -129 -102 -99 176 0
31 34 64 -96 -95 59 58 57 70 -122 -121 -120 -119 -93 -90 175 0
21 18 54 56 55 69 63 -87 -86 -114 -111 -110 -109 -84 -81 174 0
-139 -138 -137 -136 -172 -156 173 0
172 -161 0
172 -166 0
172 -171 0
61 -105 -104 46 65 60 47 71 44 -170 -102 -169 -168 -167 -99 171 0
170 52 0
170 4 0
169 3 0
169 14 0
168 11 0
168 -3 0
167 48 0
167 -4 0
31 33 34 64 -96 -95 58 57 70 -165 -164 -93 -163 -162 -90 166 0
165 39 0
165 4 0
164 3 0
164 12 0
163 35 0
163 -4 0
162 10 0
162 -3 0
21 20 18 54 55 69 63 -87 -86 -160 -159 -84 -158 -157 -81 161 0
160 26 0
160 4 0
159 3 0
159 13 0
158 9 0
158 -3 0
157 22 0
157 -4 0
156 -145 0
156 -150 0
156 -155 0
61 68 46 45 65 60 44 -132 -131 -154 -130 -129 -153 -152 -151 155 0
154 53 0
154 4 0
153 51 0
153 3 0
152 50 0
152 -4 0
151 49 0
151 -3 0
32 31 33 67 64 58 57 -122 -121 -120 -119 -149 -148 -147 -146 150 0
149 36 0
149 -3 0
148 40 0
148 4 0
147 38 0
147 3 0
146 37 0
146 -4 0
20 19 18 54 55 66 63 -114 -144 -143 -142 -111 -110 -109 -141 145 0
144 27 0
144 4 0
143 24 0
143 -4 0
142 23 0
142 -3 0
141 3 0
141 25 0
-139 -138 -137 -136 -135 -107 140 0
139 10 0
139 -9 0
138 11 0
138 -10 0
137 13 0
137 -12 0
136 12 0
136 -14 0
135 -116 0
135 -125 0
135 -134 0
46 45 43 65 60 47 44 -133 -132 -131 -130 -129 -128 -127 -126 134 0
133 49 0
133 -1 0
132 48 0
132 -6 0
131 14 0
131 5 0
130 52 0
130 6 0
129 11 0
129 -5 0
128 53 0
128 2 0
127 51 0
127 1 0
126 50 0
126 -2 0
32 31 30 33 34 64 57 -124 -123 -122 -121 -120 -119 -118 -117 125 0
124 38 0
124 1 0
123 36 0
123 -1 0
122 35 0
122 -6 0
121 39 0
121 6 0
120 12 0
120 5 0
119 10 0
119 -5 0
118 40 0
118 2 0
117 37 0
117 -2 0
21 20 19 18 17 54 63 -115 -114 -113 -112 -111 -110 -109 -108 116 0
115 23 0
115 -1 0
114 22 0
114 -6 0
113 24 0
113 -2 0
112 27 0
112 2 0
111 5 0
111 13 0
110 9 0
110 -5 0
109 26 0
109 6 0
108 1 0
108 25 0
107 -88 0
107 -97 0
107 -106 0
61 -105 -104 46 60 47 71 44 42 -103 -102 -101 -100 -99 -98 106 0
105 51 0
105 7 0
104 49 0
104 -7 0
103 11 0
103 -1 0
102 53 0
102 8 0
101 52 0
101 2 0
100 1 0
100 14 0
99 50 0
99 -8 0
98 48 0
98 -2 0
31 29 33 34 -96 -95 58 57 70 -94 -93 -92 -91 -90 -89 97 0
96 38 0
96 7 0
95 36 0
95 -7 0
94 1 0
94 12 0
93 40 0
93 8 0
92 35 0
92 -2 0
91 10 0
91 -1 0
90 37 0
90 -8 0
89 39 0
89 2 0
21 20 18 16 54 55 69 -87 -86 -85 -84 -83 -82 -81 -80 88 0
87 25 0
87 7 0
86 23 0
86 -7 0
85 26 0
85 2 0
84 27 0
84 8 0
83 1 0
83 13 0
82 9 0
82 -1 0
81 24 0
81 -8 0
80 22 0
80 -2 0
79 -75 0
79 -76 0
79 -77 0
79 -78 0
-5 -6 78 0
-1 -2 77 0
-3 -4 76 0
-7 -8 75 0
